(set-logic QF_SLIA)
(set-option :produce-models true)
(declare-fun x () String)
(assert (str.in_re x (re.++ (str.to_re "6760276") (re.+ (re.union (re.range "5" "8") (str.to_re "00000"))) (re.opt (str.to_re "962815")))))
(assert (= (mod (mod (str.to_int x) 153) 50) 2))
(assert (< (str.len x) 100))
(check-sat)
(get-model)